Optimal - objective value 15.00000000
      1 x_0_2                   1                       0
     22 x_2_4                   1                       1
     33 x_3_7                   1                       1
     40 x_4_7                   1                       7
     68 f_0_2                   3                       0
    110 f_2_4                 2.5                       0
    111 f_4_2                 0.5                       0
    133 f_7_3                   1                       0
    146 f_4_7                 2.5                       0
    147 f_7_4                 0.5                       0
